c description: Random 3-CNF over 10 variables and 20 clauses
c generator: CNFgen (0.9.0)
c copyright: (C) 2012-2020 Massimo Lauria <massimo.lauria@uniroma1.it>
c url: https://massimolauria.net/cnfgen
c command line: cnfgen -o 3SAT_n_10_m_20 randkcnf 3 10 20
c
p cnf 10 20
-1 -4 8 0
1 -4 -5 0
-2 -6 -9 0
1 2 6 0
-2 -4 -10 0
6 -9 -10 0
-4 -5 10 0
-2 6 -8 0
1 6 -8 0
-3 -5 -8 0
-1 -5 -7 0
-4 6 -7 0
1 2 10 0
2 4 7 0
3 -4 9 0
3 -6 -7 0
1 2 -8 0
-5 -6 8 0
6 8 10 0
2 5 6 0